results_rootrelaxation/bin012_080_020.srr.sol
solution status: optimal solution found
objective value:                     17.8846153846154
_var379_                            0.269230769230769 	(obj:2)
_var678_                            0.115384615384614 	(obj:1)
_var682_                            0.538461538461539 	(obj:1)
_var699_                            0.192307692307695 	(obj:3)
_var721_                            0.115384615384615 	(obj:3)
_var741_                            0.346153846153847 	(obj:2)
_var771_                            0.115384615384617 	(obj:2)
_var785_                            0.269230769230769 	(obj:1)
_var790_                            0.115384615384616 	(obj:1)
_var792_                            0.461538461538462 	(obj:0)
_var793_                            0.115384615384616 	(obj:2)
_var795_                           0.0769230769230757 	(obj:1)
_var801_                            0.423076923076924 	(obj:0)
_var812_                            0.153846153846157 	(obj:0)
_var815_                            0.384615384615383 	(obj:1)
_var816_                            0.384615384615384 	(obj:1)
_var817_                            0.384615384615385 	(obj:1)
_var819_                           0.0769230769230761 	(obj:2)
_var821_                            0.499999999999999 	(obj:2)
_var824_                           0.0384615384615397 	(obj:3)
_var827_                            0.230769230769231 	(obj:2)
_var833_                            0.115384615384616 	(obj:0)
_var837_                            0.384615384615385 	(obj:2)
_var839_                            0.230769230769231 	(obj:2)
_var844_                             0.53846153846154 	(obj:0)
_var845_                           0.0384615384615375 	(obj:1)
_var846_                            0.269230769230768 	(obj:3)
_var853_                           0.0769230769230764 	(obj:4)
_var855_                           0.0769230769230761 	(obj:0)
_var862_                            0.269230769230769 	(obj:1)
_var864_                           0.0769230769230768 	(obj:4)
_var866_                            0.269230769230769 	(obj:1)
_var878_                            0.269230769230765 	(obj:1)
_var881_                            0.153846153846152 	(obj:2)
_var882_                            0.115384615384614 	(obj:2)
_var887_                            0.115384615384617 	(obj:3)
_var902_                           0.0384615384615394 	(obj:2)
_var903_                             0.26923076923077 	(obj:2)
_var904_                           0.0769230769230789 	(obj:3)
_var905_                           0.0384615384615394 	(obj:2)
_var907_                           0.0769230769230766 	(obj:2)
_var911_                            0.115384615384616 	(obj:3)
_var913_                            0.346153846153848 	(obj:2)
_var914_                            0.192307692307692 	(obj:3)
_var916_                           0.0769230769230789 	(obj:2)
_var919_                            0.269230769230769 	(obj:2)
_var921_                           0.0769230769230768 	(obj:3)
_var923_                            0.192307692307693 	(obj:2)
_var924_                            0.192307692307693 	(obj:4)
_var925_                             0.23076923076923 	(obj:3)
_var927_                            0.192307692307691 	(obj:3)
_var928_                            0.153846153846154 	(obj:3)
_var929_                           0.0769230769230768 	(obj:1)
_var930_                           0.0769230769230755 	(obj:4)
